
Gurobi 9.1.2 (win64, Java) logging started Sat Nov 13 13:35:16 2021

Academic license - for non-commercial use only - expires 2022-10-30
Gurobi Optimizer version 9.1.2 build v9.1.2rc0 (win64)
Thread count: 6 physical cores, 12 logical processors, using up to 12 threads
Optimize a model with 30 rows, 200 columns and 400 nonzeros
Model fingerprint: 0xebc309b1
Variable types: 0 continuous, 200 integer (200 binary)
Coefficient statistics:
  Matrix range     [1e+00, 1e+03]
  Objective range  [4e+02, 1e+03]
  Bounds range     [1e+00, 1e+00]
  RHS range        [1e+00, 9e+02]
Found heuristic solution: objective 7444.0000000
Presolve removed 13 rows and 145 columns
Presolve time: 0.00s
Presolved: 17 rows, 55 columns, 109 nonzeros
Variable types: 0 continuous, 55 integer (55 binary)
Presolved: 17 rows, 55 columns, 109 nonzeros


Root relaxation: objective 8.859870e+03, 12 iterations, 0.00 seconds

    Nodes    |    Current Node    |     Objective Bounds      |     Work
 Expl Unexpl |  Obj  Depth IntInf | Incumbent    BestBd   Gap | It/Node Time

     0     0 8859.86986    0    1 7444.00000 8859.86986  19.0%     -    0s
H    0     0                    8859.0000000 8859.86986  0.01%     -    0s
     0     0 8859.86986    0    1 8859.00000 8859.86986  0.01%     -    0s

Explored 1 nodes (12 simplex iterations) in 0.00 seconds
Thread count was 12 (of 12 available processors)

Solution count 2: 8859 7444 

Optimal solution found (tolerance 1.00e-12)
Best objective 8.859000000000e+03, best bound 8.859000000000e+03, gap 0.0000%
